[2026-03-01T19:53:18] Logging to: /run/media/saveas/Secondary-Storage/Masters/CS234/CS234_Reinforcement_Learning/Final Project/CS234_Final_Project/results/trajectory_optimization/nlp/TRACK1_280m/N200/run_trajopt_demo_output.log
======================================================================
IPOPT TRAJECTORY OPTIMIZATION DEMO (SINGLE STAGE)
======================================================================

1. Loading track: /run/media/saveas/Secondary-Storage/Masters/CS234/CS234_Reinforcement_Learning/Final Project/CS234_Final_Project/maps/TRACK1_280m.mat
   Track length: 280.0 m

2. Creating vehicle model...
   Vehicle: SingleTrackModel(VW_Golf_GTI, weight_transfer=enabled)

3. Loaded obstacles from map: 0

4. Setup:
   N = 200
   ds = 1.40 m
   Obstacle subsamples/segment = 7
   Obstacle enforce midpoints = False
   Obstacle use slack = False
   Track buffer = 0.00 m
   lambda_u = 0.005
   vehicle_radius_m = 0.00
   eps_s = 0.100, eps_kappa = 0.050
   Solver path = Python/CasADi (IPOPT)

======================================================================
SINGLE STAGE: COMBINED OBJECTIVE (ACCEPTANCE-GATED)
======================================================================
Acceptance gates: success=True, max_slack<=0.000e+00, min_clearance>=-0.0010 m
Acceptance policy: practical epsilon mode (allows tiny negative dense clearance).
Initializer: obstacle_aware_init=True, sigma=8.00 m, margin=0.30 m

Attempt 1/4: baseline
  N=200, ds=1.400 m, subsamples=7, obstacle_clearance_m=0.000
Exception of type: DYNAMIC_LIBRARY_FAILURE in file "Common/IpLibraryLoader.cpp" at line 72:
 Exception message: libhsl.so: cannot open shared object file: No such file or directory

EXIT: Library loading failure.
      solver  :   t_proc      (avg)   t_wall      (avg)    n_eval
       total  | 339.00us (339.00us) 341.62us (341.62us)         1
Solver failed with ipopt.linear_solver=ma57: Error in Opti::solve [OptiNode] at .../casadi/core/optistack.cpp:217:
.../casadi/core/optistack_internal.cpp:1338: Assertion "return_success(accept_limit)" failed:
Solver failed. You may use opti.debug.value to investigate the latest values of variables. return_status is 'Invalid_Option'
Retrying with IPOPT default linear solver.

******************************************************************************
This program contains Ipopt, a library for large-scale nonlinear optimization.
 Ipopt is released as open source code under the Eclipse Public License (EPL).
         For more information visit https://github.com/coin-or/Ipopt
******************************************************************************

This is Ipopt version 3.14.11, running with linear solver MUMPS 5.4.1.

Number of nonzeros in equality constraint Jacobian...:    20353
Number of nonzeros in inequality constraint Jacobian.:     2172
Number of nonzeros in Lagrangian Hessian.............:     7360

Total number of variables............................:     2010
                     variables with only lower bounds:        0
                variables with lower and upper bounds:        0
                     variables with only upper bounds:        0
Total number of equality constraints.................:     1610
Total number of inequality constraints...............:     1689
        inequality constraints with only lower bounds:     1086
   inequality constraints with lower and upper bounds:        0
        inequality constraints with only upper bounds:      603

iter    objective    inf_pr   inf_du lg(mu)  ||d||  lg(rg) alpha_du alpha_pr  ls
   0  2.8000000e+01 1.17e-01 1.05e+00  -1.0 0.00e+00    -  0.00e+00 0.00e+00   0
   1  2.7892736e+01 8.47e-01 2.05e+03  -1.0 6.63e+00   2.0 7.11e-01 1.00e+00H  1
   2  2.7894276e+01 1.53e+00 1.53e+04  -1.0 1.58e-01   4.2 8.22e-01 5.00e-01h  2
   3  2.7900494e+01 1.78e+00 2.67e+04  -1.0 1.87e-01   3.8 1.00e+00 1.00e+00h  1
   4  2.7909483e+01 5.68e-01 9.00e+03  -1.0 2.15e-01   3.3 1.00e+00 1.00e+00h  1
   5  2.7922361e+01 1.21e-01 3.67e+03  -1.0 2.28e-01   2.8 1.00e+00 1.00e+00h  1
   6  2.7926828e+01 2.92e-03 4.66e+02  -1.0 9.26e-02   2.3 1.00e+00 1.00e+00h  1
   7  2.7926671e+01 6.33e-06 1.92e+00  -1.0 1.36e-03   1.8 1.00e+00 1.00e+00h  1
   8  2.7925916e+01 7.11e-05 6.11e-02  -1.0 9.17e-04   1.4 1.00e+00 1.00e+00h  1
   9  2.7924967e+01 1.05e-05 7.40e-03  -2.5 9.48e-04   0.9 1.00e+00 1.00e+00h  1
iter    objective    inf_pr   inf_du lg(mu)  ||d||  lg(rg) alpha_du alpha_pr  ls
  10  1.8608611e+01 4.78e+00 1.26e-02  -3.8 2.58e+01    -  3.33e-01 3.62e-01f  1
  11  1.9129988e+01 3.55e+00 5.47e+01  -3.8 3.07e+00   0.4 2.09e-03 2.69e-01h  1
  12  2.0042425e+01 4.37e+00 2.01e+03  -3.8 1.86e+00   1.7 1.93e-03 6.52e-01h  1
  13  2.0313123e+01 1.95e+00 1.38e+03  -3.8 1.56e+00   2.2 1.25e-04 5.42e-01h  1
  14  2.0360535e+01 2.09e+00 1.91e+03  -3.8 1.64e+00   1.7 1.91e-04 1.79e-01h  3
  15  2.0418233e+01 2.99e+00 3.88e+03  -3.8 1.17e+00   2.1 8.42e-02 2.49e-01h  2
  16  2.0462273e+01 4.87e+00 2.70e+03  -3.8 9.72e+00   1.6 3.83e-01 1.90e-01h  1
  17  2.0466184e+01 4.95e+00 2.56e+03  -3.8 1.60e+00   3.9 7.90e-04 2.73e-02h  5
  18  2.0653015e+01 3.05e+00 1.77e+05  -3.8 1.40e+00   3.4 7.18e-01 1.00e+00h  1
  19  2.0657901e+01 2.87e+00 1.66e+05  -3.8 1.68e+00   2.9 6.44e-02 5.98e-02h  1
iter    objective    inf_pr   inf_du lg(mu)  ||d||  lg(rg) alpha_du alpha_pr  ls
  20  2.0660331e+01 2.82e+00 1.63e+05  -3.8 1.84e+00   2.4 1.00e+00 1.86e-02h  1
  21  2.0743681e+01 1.35e+00 4.93e+04  -3.8 1.60e+00   2.9 1.19e-01 1.00e+00h  1
  22  2.0769446e+01 2.31e-01 1.38e+04  -3.8 9.96e-01   3.3 1.00e+00 1.00e+00h  1
  23  2.0783011e+01 9.66e-03 2.55e+03  -3.8 1.39e-01   2.8 1.00e+00 1.00e+00h  1
  24  2.0783445e+01 3.80e-05 3.38e+01  -3.8 6.78e-03   2.3 1.00e+00 1.00e+00h  1
  25  2.0783400e+01 1.05e-06 6.79e-02  -3.8 9.27e-04   1.9 1.00e+00 1.00e+00h  1
  26  2.0783266e+01 3.88e-07 7.16e-03  -3.8 2.94e-04   1.4 1.00e+00 1.00e+00h  1
  27  2.0782865e+01 3.45e-06 1.26e-02  -3.8 1.55e-03   0.9 1.00e+00 1.00e+00h  1
  28  2.0781669e+01 2.79e-05 5.51e-03  -3.8 2.04e-03   0.4 1.00e+00 1.00e+00h  1
  29  2.0778096e+01 2.01e-04 5.60e-03  -3.8 6.21e-03  -0.0 1.00e+00 1.00e+00h  1
iter    objective    inf_pr   inf_du lg(mu)  ||d||  lg(rg) alpha_du alpha_pr  ls
  30  2.0767511e+01 1.63e-03 5.76e-03  -3.8 1.92e-02  -0.5 1.00e+00 1.00e+00h  1
  31  2.0736587e+01 1.63e-02 6.19e-03  -3.8 6.18e-02  -1.0 1.00e+00 1.00e+00h  1
  32  2.0649449e+01 1.66e-01 2.06e-02  -3.8 1.71e-01  -1.5 1.00e+00 1.00e+00h  1
  33  2.0430347e+01 5.52e-01 1.99e-01  -3.8 6.33e-01  -2.0 1.00e+00 1.00e+00h  1
  34  2.0356180e+01 2.19e-01 4.70e-02  -3.8 2.75e-01  -1.5 6.20e-01 1.00e+00h  1
  35  2.0174903e+01 2.46e-01 1.50e-02  -3.8 5.61e-01  -2.0 1.00e+00 8.19e-01h  1
  36  1.9874186e+01 1.58e+00 5.81e-02  -3.8 1.71e+00  -2.5 1.00e+00 5.70e-01h  1
  37  1.9544745e+01 1.20e+00 1.22e-02  -3.8 2.83e+00  -3.0 1.00e+00 2.79e-01h  1
  38  1.8663212e+01 3.58e+00 1.46e-02  -3.8 9.96e+00  -3.4 1.00e+00 3.71e-01h  1
  39  1.8654301e+01 3.53e+00 1.44e-02  -3.8 5.67e+01  -3.0 2.50e-02 1.41e-02h  1
iter    objective    inf_pr   inf_du lg(mu)  ||d||  lg(rg) alpha_du alpha_pr  ls
  40  1.8474530e+01 3.18e+00 1.50e-02  -3.8 1.16e+01  -3.5 1.30e-01 1.15e-01h  1
  41  1.8296025e+01 2.32e+00 2.10e-02  -3.8 4.01e+00  -3.1 8.36e-01 2.79e-01h  1
  42  1.7971820e+01 1.79e+00 2.52e-02  -3.8 7.36e+00  -3.5 8.00e-01 2.44e-01h  1
  43  1.7937015e+01 4.16e+00 1.79e-01  -3.8 6.60e+01  -3.1 3.96e-02 5.65e-02h  1
  44  1.7866545e+01 2.20e+00 1.03e-01  -3.8 3.45e+00  -2.7 7.06e-01 4.72e-01h  1
  45  1.7874064e+01 1.45e+00 2.71e-01  -3.8 1.68e+00  -1.4 6.80e-02 1.74e-01h  1
  46  1.7910493e+01 3.11e+00 5.99e-01  -3.8 1.48e+00  -0.9 3.18e-01 7.87e-01h  1
  47  1.7915941e+01 2.41e+00 5.07e-01  -3.8 1.88e+00  -1.4 5.62e-01 3.77e-01H  1
  48  1.7920683e+01 7.34e-01 8.77e-01  -3.8 1.16e+00  -0.1 8.81e-01 9.05e-01h  1
  49  1.7921367e+01 2.08e-01 4.49e+00  -3.8 3.78e-01   0.3 7.35e-04 1.00e+00h  1
iter    objective    inf_pr   inf_du lg(mu)  ||d||  lg(rg) alpha_du alpha_pr  ls
  50  1.7921218e+01 9.15e-02 8.59e-01  -3.8 1.42e-01  -0.1 1.00e+00 1.00e+00h  1
  51  1.7918655e+01 2.35e-02 1.13e-02  -3.8 1.36e-02  -0.6 9.50e-01 1.00e+00h  1
  52  1.7911518e+01 3.71e-03 1.90e-03  -3.8 2.21e-02  -1.1 1.00e+00 1.00e+00h  1
  53  1.7891276e+01 3.74e-02 1.75e-03  -3.8 6.38e-02  -1.6 1.00e+00 1.00e+00h  1
  54  1.7841501e+01 4.27e-02 1.77e-02  -3.8 2.43e-01  -2.0 1.00e+00 1.00e+00h  1
  55  1.7713599e+01 3.72e-01 3.70e-03  -3.8 5.85e-01  -2.5 1.00e+00 1.00e+00f  1
  56  1.7673678e+01 2.74e-01 6.74e-03  -3.8 1.90e-01  -2.1 1.00e+00 1.00e+00h  1
  57  1.7558146e+01 2.93e-01 3.63e-03  -3.8 7.03e-01  -2.6 1.00e+00 1.00e+00h  1
  58  1.7521489e+01 1.61e-01 2.89e-03  -3.8 2.38e-01  -2.1 1.00e+00 1.00e+00h  1
  59  1.7412817e+01 1.26e+00 8.96e-03  -3.8 1.18e+00  -2.6 1.00e+00 1.00e+00h  1
iter    objective    inf_pr   inf_du lg(mu)  ||d||  lg(rg) alpha_du alpha_pr  ls
  60  1.7413899e+01 6.79e-01 6.84e-02  -3.8 6.82e-01  -1.3 4.42e-01 4.65e-01h  1
  61  1.7415956e+01 1.89e-01 1.17e-01  -3.8 4.33e-01  -0.9 1.00e+00 1.00e+00H  1
  62  1.7410372e+01 8.64e-03 5.88e-03  -3.8 2.85e-02  -1.3 1.00e+00 1.00e+00h  1
  63  1.7394177e+01 2.32e-02 1.71e-03  -3.8 1.13e-01  -1.8 1.00e+00 1.00e+00h  1
  64  1.7349452e+01 2.88e-01 2.77e-03  -3.8 3.61e-01  -2.3 1.00e+00 1.00e+00h  1
  65  1.7334240e+01 3.76e-01 1.60e-02  -3.8 2.65e-01  -1.9 1.00e+00 1.00e+00h  1
  66  1.7329261e+01 2.55e-01 4.70e-02  -3.8 2.43e-01  -1.4 1.00e+00 1.00e+00h  1
  67  1.7327089e+01 1.13e-03 1.39e-03  -3.8 1.44e-02  -1.0 1.00e+00 1.00e+00h  1
  68  1.7319692e+01 7.45e-04 2.02e-03  -5.7 6.99e-02  -1.5 9.06e-01 7.44e-01h  1
  69  1.7309337e+01 2.01e-03 2.51e-02  -5.7 1.85e-01  -2.0 1.00e+00 4.10e-01h  1
iter    objective    inf_pr   inf_du lg(mu)  ||d||  lg(rg) alpha_du alpha_pr  ls
  70  1.7288736e+01 7.89e-03 3.14e-02  -5.7 4.86e-01  -2.4 1.00e+00 3.30e-01h  1
  71  1.7273913e+01 2.24e-02 1.11e-02  -5.7 1.83e-01  -2.0 4.98e-01 6.58e-01h  1
  72  1.7266928e+01 5.77e-03 1.65e-03  -5.7 6.42e-02  -1.6 1.00e+00 8.57e-01h  1
  73  1.7262056e+01 4.03e-02 4.03e-03  -5.7 1.66e-01  -2.1 1.00e+00 2.16e-01h  1
  74  1.7249737e+01 3.25e-02 6.50e-03  -5.7 5.39e-01  -2.6 1.00e+00 1.96e-01h  1
  75  1.7238496e+01 3.20e-02 1.17e-02  -5.7 2.00e-01  -2.1 1.00e+00 4.71e-01h  1
  76  1.7215680e+01 1.79e-01 7.73e-03  -5.7 8.54e-01  -2.6 3.30e-01 3.31e-01h  1
  77  1.7211096e+01 1.62e-01 3.22e-02  -5.7 2.31e-01  -2.2 1.00e+00 1.74e-01h  1
  78  1.7198668e+01 9.25e-01 3.05e-02  -5.7 6.41e+00  -2.7 3.56e-02 1.12e-01h  1
  79  1.7194971e+01 7.94e-01 2.57e-02  -5.7 6.19e-01  -2.2 3.33e-01 1.43e-01h  1
iter    objective    inf_pr   inf_du lg(mu)  ||d||  lg(rg) alpha_du alpha_pr  ls
  80  1.7179934e+01 6.41e-01 4.34e-02  -5.7 8.98e-01  -2.7 6.85e-02 1.99e-01h  1
  81  1.7174256e+01 5.14e-01 4.60e-02  -5.7 5.54e-01  -2.3 8.58e-01 1.99e-01h  1
  82  1.7164055e+01 1.51e-01 5.10e-03  -5.7 3.63e-01  -1.9 1.00e+00 1.00e+00h  1
  83  1.7139420e+01 9.15e-02 2.16e-03  -5.7 3.08e-01  -2.3 1.00e+00 7.62e-01h  1
  84  1.7127751e+01 6.03e-02 1.40e-03  -5.7 1.12e-01  -1.9 1.00e+00 1.00e+00h  1
  85  1.7104584e+01 9.41e-02 1.46e-03  -5.7 3.56e-01  -2.4 1.00e+00 6.74e-01h  1
  86  1.7067448e+01 2.22e+00 1.62e-02  -5.7 5.36e+00  -2.9 4.38e-01 3.15e-01h  1
  87  1.7065200e+01 2.04e+00 2.77e-02  -5.7 1.38e+00  -2.4 4.80e-01 7.81e-02h  1
  88  1.7012065e+01 1.23e+00 2.31e-02  -5.7 2.50e+00  -2.9 1.74e-01 5.60e-01h  1
  89  1.7010006e+01 1.21e+00 2.65e-02  -5.7 1.83e+00  -3.4 2.70e-01 1.05e-02h  1
iter    objective    inf_pr   inf_du lg(mu)  ||d||  lg(rg) alpha_du alpha_pr  ls
  90  1.6982005e+01 7.76e-01 1.70e-02  -5.7 1.12e+00  -3.0 3.82e-01 3.61e-01h  1
  91  1.6975387e+01 5.86e-01 2.10e-02  -5.7 6.09e-01  -2.5 8.27e-01 2.45e-01h  1
  92  1.6963954e+01 5.07e-01 1.12e-02  -5.7 1.29e+00  -3.0 6.15e-01 1.36e-01h  1
  93  1.6939968e+01 4.96e-01 2.94e-03  -5.7 5.79e-01  -2.6 6.10e-01 7.96e-01h  1
  94  1.6929624e+01 1.28e-01 2.15e-03  -5.7 3.31e-01  -2.2 1.00e+00 9.48e-01h  1
  95  1.6921322e+01 1.00e-01 8.25e-03  -5.7 2.89e-01  -2.6 1.00e+00 2.40e-01h  1
  96  1.6901392e+01 9.98e-02 3.59e-02  -5.7 1.07e+00  -3.1 5.54e-01 2.05e-01h  1
  97  1.6864365e+01 9.18e-02 1.42e-03  -5.7 3.59e-01  -2.7 1.00e+00 1.00e+00h  1
  98  1.6851140e+01 1.47e+00 3.46e-02  -5.7 1.72e-01  -2.3 9.18e-01 1.00e+00h  1
  99  1.6846050e+01 6.76e-01 2.04e-01  -5.7 4.47e-01  -1.8 8.44e-01 1.00e+00h  1
iter    objective    inf_pr   inf_du lg(mu)  ||d||  lg(rg) alpha_du alpha_pr  ls
 100  1.6845531e+01 1.23e-01 1.89e-01  -5.7 3.26e-01  -0.5 5.02e-01 1.00e+00h  1
 101  1.6845490e+01 8.47e-02 1.64e-01  -5.7 4.98e-02  -0.1 4.69e-01 5.66e-01h  1
 102  1.6845302e+01 6.24e-02 1.00e-01  -5.7 6.49e-02  -0.6 1.00e+00 2.71e-01h  1
 103  1.6844731e+01 2.61e-02 4.43e-02  -5.7 5.11e-02  -1.0 1.00e+00 5.83e-01h  1
 104  1.6842368e+01 4.13e-02 8.99e-03  -5.7 4.54e-02  -1.5 1.00e+00 1.00e+00f  1
 105  1.6841472e+01 3.66e-03 2.26e-03  -5.7 9.12e-03  -1.1 1.00e+00 1.00e+00h  1
 106  1.6840759e+01 3.77e-02 2.63e-03  -5.7 1.14e-01  -1.6 1.00e+00 2.29e-01h  1
 107  1.6832895e+01 1.19e-02 2.41e-03  -5.7 8.48e-02  -2.0 1.00e+00 1.00e+00h  1
 108  1.6810297e+01 8.40e-02 7.01e-03  -5.7 2.01e-01  -2.5 1.00e+00 1.00e+00h  1
 109  1.6778267e+01 2.67e-01 7.16e-03  -5.7 1.03e+00  -3.0 1.00e+00 5.07e-01h  1
iter    objective    inf_pr   inf_du lg(mu)  ||d||  lg(rg) alpha_du alpha_pr  ls
 110  1.6739837e+01 9.79e-01 7.54e-03  -5.7 5.20e+00  -3.5 2.06e-01 2.28e-01h  1
 111  1.6724618e+01 6.59e-01 8.14e-03  -5.7 2.91e+00  -3.0 2.26e-01 2.01e-01h  1
 112  1.6720020e+01 5.70e-01 4.62e-02  -5.7 1.03e+00  -2.6 4.54e-01 1.35e-01h  1
 113  1.6717568e+01 4.51e-01 4.27e-02  -5.7 5.79e-01  -2.2 1.00e-01 1.82e-01h  1
 114  1.6714275e+01 3.89e-01 9.00e-03  -5.7 2.84e-01  -2.7 5.09e-01 1.33e-01f  1
 115  1.6704812e+01 3.33e-01 1.02e-02  -5.7 8.19e-01  -3.1 1.00e+00 1.43e-01h  1
 116  1.6681515e+01 2.84e-01 8.72e-03  -5.7 3.44e+00  -3.6 1.50e-01 1.45e-01h  1
 117  1.6672309e+01 2.39e-01 6.14e-02  -5.7 1.29e+00  -3.2 3.17e-02 1.51e-01h  1
 118  1.6665382e+01 1.72e-01 4.78e-02  -5.7 4.77e-01  -2.8 1.00e+00 2.76e-01h  1
 119  1.6656637e+01 1.11e-01 7.58e-03  -5.7 1.91e-01  -2.3 4.53e-01 9.49e-01h  1
iter    objective    inf_pr   inf_du lg(mu)  ||d||  lg(rg) alpha_du alpha_pr  ls
 120  1.6654619e+01 1.84e-01 1.94e-02  -5.7 1.88e-01  -1.9 1.00e+00 6.74e-01h  1
 121  1.6653613e+01 2.34e-02 2.48e-02  -5.7 1.58e-01  -1.5 8.30e-01 9.05e-01h  1
 122  1.6653141e+01 2.67e-04 2.01e-03  -5.7 1.83e-02  -1.1 1.00e+00 1.00e+00f  1
 123  1.6651679e+01 1.98e-03 6.35e-04  -5.7 2.02e-02  -1.5 1.00e+00 1.00e+00h  1
 124  1.6649969e+01 2.92e-03 7.90e-04  -5.7 5.94e-02  -2.0 1.00e+00 4.06e-01h  1
 125  1.6639267e+01 1.09e-01 1.45e-03  -5.7 1.91e-01  -2.5 1.00e+00 1.00e+00h  1
 126  1.6636364e+01 1.10e-01 1.42e-02  -5.7 6.41e-01  -3.0 3.97e-01 1.05e-01h  1
 127  1.6628844e+01 1.18e-01 1.24e-02  -5.7 3.63e+00  -3.5 5.36e-01 1.05e-01h  1
 128  1.6602196e+01 3.49e-01 4.21e-02  -5.7 9.50e-01  -3.0 3.02e-01 9.85e-01h  1
 129  1.6598889e+01 2.82e-01 2.58e-02  -5.7 3.29e-01  -2.6 1.00e+00 4.45e-01h  1
iter    objective    inf_pr   inf_du lg(mu)  ||d||  lg(rg) alpha_du alpha_pr  ls
 130  1.6595406e+01 2.60e-01 2.23e-02  -5.7 1.52e+00  -3.1 4.58e-01 1.39e-01h  1
 131  1.6586326e+01 2.54e-01 6.10e-02  -5.7 5.04e-01  -2.7 3.83e-01 1.00e+00h  1
 132  1.6577054e+01 1.53e-01 3.27e-02  -5.7 4.25e-01  -3.1 2.46e-01 4.25e-01h  1
 133  1.6574527e+01 1.45e-01 2.89e-02  -5.7 1.27e+00  -3.6 1.56e-01 5.19e-02h  1
 134  1.6566904e+01 1.32e-01 2.73e-02  -5.7 4.77e+00  -4.1 1.83e-01 7.73e-02h  1
 135  1.6565569e+01 1.28e-01 2.76e-02  -5.7 1.26e+00  -3.7 1.80e-01 2.94e-02h  1
 136  1.6560813e+01 1.21e-01 2.61e-02  -5.7 4.76e+00  -4.1 3.54e-02 5.13e-02h  1
 137  1.6555071e+01 1.05e-01 2.20e-02  -5.7 1.45e+00  -3.7 6.69e-02 1.37e-01h  1
 138  1.6553712e+01 1.03e-01 2.17e-02  -5.7 3.62e+00  -4.2 9.78e-02 1.62e-02h  1
 139  1.6550206e+01 1.04e-01 2.07e-02  -5.7 2.39e+00  -3.8 2.26e-01 7.71e-02h  1
iter    objective    inf_pr   inf_du lg(mu)  ||d||  lg(rg) alpha_du alpha_pr  ls
 140  1.6541534e+01 2.71e-01 1.79e-02  -5.7 1.22e+00  -3.3 1.01e-01 4.33e-01f  1
 141  1.6541008e+01 6.05e-02 2.10e-03  -5.7 1.20e-01  -2.0 1.00e+00 9.93e-01h  1
 142  1.6540815e+01 2.30e-01 1.00e-02  -5.7 1.45e-01  -1.6 1.00e+00 3.57e-01h  1
 143  1.6539697e+01 3.45e-02 9.61e-04  -5.7 5.77e-02  -2.1 8.01e-01 1.00e+00h  1
 144  1.6536448e+01 2.83e-02 1.49e-03  -5.7 1.59e-01  -2.5 1.00e+00 1.00e+00h  1
 145  1.6530840e+01 1.62e-01 7.33e-04  -5.7 5.68e-01  -3.0 6.86e-01 6.19e-01h  1
 146  1.6527160e+01 1.99e-01 1.89e-02  -5.7 3.32e+00  -3.5 2.18e-01 1.36e-01h  1
 147  1.6517946e+01 3.08e-01 6.12e-02  -5.7 6.22e-01  -3.1 7.07e-02 1.00e+00h  1
 148  1.6514402e+01 2.78e-01 5.56e-02  -5.7 6.39e+00  -3.5 2.57e-01 9.36e-02h  1
 149  1.6513259e+01 2.54e-01 5.09e-02  -5.7 1.33e+00  -3.1 6.79e-02 8.45e-02h  1
iter    objective    inf_pr   inf_du lg(mu)  ||d||  lg(rg) alpha_du alpha_pr  ls
 150  1.6509411e+01 8.84e-01 2.93e-02  -5.7 1.58e+00  -2.7 3.13e-01 4.24e-01h  1
 151  1.6509360e+01 8.42e-01 2.79e-02  -5.7 7.56e-01  -2.3 1.53e-02 4.69e-02h  1
 152  1.6508851e+01 7.74e-01 2.56e-02  -5.7 9.25e-01  -2.7 4.35e-01 8.15e-02f  1
 153  1.6499433e+01 1.06e+00 3.73e-02  -5.7 2.78e+00  -3.2 3.53e-02 5.79e-01h  1
 154  1.6499399e+01 1.04e+00 3.66e-02  -5.7 9.12e-01  -2.8 6.83e-02 1.77e-02h  1
 155  1.6499003e+01 1.62e+00 3.60e-02  -5.7 2.88e+01  -3.3 1.86e-02 1.65e-02h  1
 156  1.6498992e+01 6.81e-01 2.46e-02  -5.7 8.86e-01  -2.8 4.93e-01 3.41e-01h  1
 157  1.6496762e+01 4.67e-01 1.71e-02  -5.7 7.54e-01  -3.3 3.88e-01 3.14e-01h  1
 158  1.6493777e+01 3.89e-01 1.44e-02  -5.7 1.86e+00  -3.8 3.47e-01 1.67e-01h  1
 159  1.6491899e+01 2.92e-01 1.10e-02  -5.7 7.46e-01  -3.4 2.58e-01 2.49e-01h  1
iter    objective    inf_pr   inf_du lg(mu)  ||d||  lg(rg) alpha_du alpha_pr  ls
 160  1.6490617e+01 1.19e-01 7.12e-03  -5.7 3.83e-01  -2.9 3.02e-01 5.92e-01h  1
 161  1.6488732e+01 1.04e-01 2.06e-02  -5.7 1.15e+00  -3.4 7.85e-02 2.48e-01h  1
 162  1.6486289e+01 1.65e-01 2.45e-02  -5.7 3.53e-01  -3.0 4.68e-01 9.00e-01f  1
 163  1.6485063e+01 1.14e-01 3.52e-03  -5.7 2.13e-01  -2.6 1.00e+00 1.00e+00h  1
 164  1.6484496e+01 2.42e-01 6.40e-03  -5.7 4.04e+00  -2.1 3.63e-02 3.59e-02h  1
 165  1.6483495e+01 1.37e-01 7.30e-03  -5.7 2.98e-01  -2.6 8.17e-01 4.55e-01h  1
 166  1.6481352e+01 8.13e-02 3.60e-03  -5.7 3.29e-01  -3.1 6.67e-01 8.94e-01f  1
 167  1.6479056e+01 3.42e-01 1.27e-02  -5.7 1.17e+00  -3.6 5.09e-02 2.82e-01h  1
 168  1.6477267e+01 1.30e-01 4.79e-03  -5.7 4.74e-01  -3.1 7.04e-01 6.26e-01f  1
 169  1.6474764e+01 2.43e-01 1.67e-02  -5.7 2.96e+00  -3.6 5.86e-02 2.54e-01h  1
iter    objective    inf_pr   inf_du lg(mu)  ||d||  lg(rg) alpha_du alpha_pr  ls
 170  1.6473931e+01 3.68e-01 1.54e-02  -5.7 4.76e+00  -3.2 6.08e-02 7.29e-02h  1
 171  1.6473755e+01 2.54e-01 1.45e-02  -5.7 3.25e-01  -2.8 1.34e-01 3.11e-01h  1
 172  1.6473097e+01 1.77e-01 5.09e-03  -5.7 5.32e-01  -3.3 6.11e-01 3.05e-01h  1
 173  1.6472779e+01 1.01e-01 3.17e-03  -5.7 2.04e-01  -2.8 3.84e-01 4.34e-01h  1
 174  1.6471165e+01 8.80e-01 2.37e-03  -5.7 1.48e+00  -3.3 7.31e-01 6.85e-01h  1
 175  1.6470774e+01 6.40e-01 3.21e-02  -5.7 3.17e-01  -2.0 2.61e-02 4.38e-01h  1
 176  1.6470517e+01 4.47e-02 3.20e-03  -5.7 3.42e-01  -2.5 9.21e-01 1.00e+00h  1
 177  1.6470265e+01 3.31e-02 6.45e-03  -5.7 1.67e-01  -2.9 1.00e+00 2.53e-01h  1
 178  1.6468831e+01 8.27e-02 2.44e-03  -5.7 5.00e-01  -3.4 7.04e-01 6.54e-01h  1
 179  1.6466956e+01 2.13e-01 1.95e-03  -5.7 2.32e+00  -3.9 2.56e-01 2.03e-01h  1
iter    objective    inf_pr   inf_du lg(mu)  ||d||  lg(rg) alpha_du alpha_pr  ls
 180  1.6465690e+01 3.84e-01 1.42e-02  -5.7 8.77e-01  -3.5 7.66e-02 3.17e-01h  1
 181  1.6465461e+01 3.83e-01 1.49e-02  -5.7 1.19e+01  -3.9 2.35e-02 4.35e-03h  1
 182  1.6463769e+01 2.05e-01 4.86e-02  -5.7 6.25e-01  -3.5 2.13e-01 4.69e-01h  1
 183  1.6457948e+01 7.56e-01 4.20e-02  -5.7 1.40e+01  -4.0 3.55e-03 1.01e-01h  1
 184  1.6457777e+01 7.55e-01 8.09e-02  -5.7 2.54e+01    -  1.19e-02 1.26e-03h  1
 185  1.6456997e+01 7.43e-01 6.18e-02  -5.7 5.97e+00  -4.5 3.69e-03 2.12e-02f  1
 186  1.6455268e+01 7.14e-01 5.88e-02  -5.7 6.47e+00  -4.0 6.53e-02 4.71e-02h  1
 187  1.6452702e+01 5.50e-01 4.52e-02  -5.7 2.37e+00  -3.6 1.36e-01 2.30e-01f  1
 188  1.6450524e+01 3.51e-01 2.88e-02  -5.7 1.52e+00  -3.2 1.00e+00 3.63e-01h  1
 189  1.6450024e+01 3.45e-01 2.83e-02  -5.7 6.02e+00    -  3.31e-02 1.75e-02h  1
iter    objective    inf_pr   inf_du lg(mu)  ||d||  lg(rg) alpha_du alpha_pr  ls
 190  1.6443332e+01 9.19e-01 2.28e-02  -5.7 3.60e+00  -3.7 1.94e-01 3.36e-01h  1
 191  1.6441913e+01 5.45e-01 5.31e-01  -5.7 1.35e+00  -3.2 3.56e-02 5.58e-01h  1
 192  1.6441227e+01 5.40e-01 5.21e-01  -5.7 5.71e+00  -3.7 2.48e-02 1.45e-02h  1
 193  1.6433304e+01 9.30e-01 1.81e-01  -5.7 2.01e+00  -3.3 4.26e-01 6.62e-01f  1
 194  1.6432133e+01 9.13e-01 1.88e-01  -5.7 4.24e+01    -  2.79e-02 2.09e-02h  1
 195  1.6431609e+01 8.74e-01 1.79e-01  -5.7 2.42e+00  -3.8 4.13e-02 4.22e-02h  1
 196  1.6430967e+01 8.45e-01 1.72e-01  -5.7 2.75e+00  -4.2 1.48e-01 3.35e-02h  1
 197  1.6429565e+01 7.29e-01 1.48e-01  -5.7 1.98e+00  -3.8 8.13e-02 1.38e-01h  1
 198  1.6428303e+01 6.51e-01 1.32e-01  -5.7 2.19e+00    -  1.06e-01 1.07e-01h  1
 199  1.6427748e+01 5.96e-01 1.21e-01  -5.7 1.58e+00    -  1.46e-01 8.45e-02h  1
iter    objective    inf_pr   inf_du lg(mu)  ||d||  lg(rg) alpha_du alpha_pr  ls
 200  1.6427650e+01 5.34e-01 1.08e-01  -5.7 8.44e-01    -  4.37e-02 1.05e-01h  1
 201  1.6426153e+01 3.85e-01 1.88e-01  -5.7 1.51e+00    -  4.50e-02 2.81e-01h  1
 202  1.6426148e+01 3.80e-01 1.86e-01  -5.7 7.69e-01    -  6.89e-02 1.17e-02h  1
 203  1.6426170e+01 1.94e-01 1.13e-01  -5.7 6.77e-01    -  4.46e-02 4.91e-01f  1
 204  1.6426268e+01 1.38e-01 7.79e-02  -5.7 5.13e-01    -  5.06e-01 2.99e-01h  1
 205  1.6426531e+01 8.30e-02 3.69e-02  -5.7 3.51e-01    -  5.20e-01 5.26e-01h  1
 206  1.6426717e+01 5.45e-02 2.12e-02  -5.7 1.77e-01    -  2.65e-01 4.04e-01h  1
 207  1.6426969e+01 2.19e-02 1.49e-02  -5.7 1.20e-01    -  2.31e-01 7.41e-01h  1
 208  1.6427034e+01 5.30e-03 1.94e-03  -5.7 2.83e-02    -  1.00e+00 7.69e-01h  1
 209  1.6427062e+01 9.79e-05 4.93e-07  -5.7 9.76e-03    -  1.00e+00 1.00e+00h  1
iter    objective    inf_pr   inf_du lg(mu)  ||d||  lg(rg) alpha_du alpha_pr  ls
 210  1.6427062e+01 4.15e-07 5.14e-09  -5.7 5.93e-04    -  1.00e+00 1.00e+00h  1
 211  1.6426921e+01 3.45e-04 6.75e-04  -7.0 9.61e-02    -  9.18e-01 7.95e-01h  1
 212  1.6426882e+01 6.35e-05 5.19e-05  -7.0 9.11e-03    -  1.00e+00 1.00e+00h  1
 213  1.6426882e+01 3.32e-06 6.44e-06  -7.0 1.17e-03    -  1.00e+00 1.00e+00h  1
 214  1.6426882e+01 7.68e-08 1.50e-07  -7.0 1.25e-04    -  1.00e+00 1.00e+00h  1

Number of Iterations....: 214

                                   (scaled)                 (unscaled)
Objective...............:   1.6426881660872244e+01    1.6426881660872244e+01
Dual infeasibility......:   1.4965997179562586e-07    1.4965997179562586e-07
Constraint violation....:   7.6800475312666094e-08    7.6800475312666094e-08
Variable bound violation:   0.0000000000000000e+00    0.0000000000000000e+00
Complementarity.........:   9.1521729314719989e-08    9.1521729314719989e-08
Overall NLP error.......:   1.4965997179562586e-07    1.4965997179562586e-07


Number of objective function evaluations             = 235
Number of objective gradient evaluations             = 215
Number of equality constraint evaluations            = 235
Number of inequality constraint evaluations          = 235
Number of equality constraint Jacobian evaluations   = 215
Number of inequality constraint Jacobian evaluations = 215
Number of Lagrangian Hessian evaluations             = 214
Total seconds in IPOPT                               = 41.985

EXIT: Optimal Solution Found.
      solver  :   t_proc      (avg)   t_wall      (avg)    n_eval
       nlp_f  |   9.26ms ( 39.40us)   9.28ms ( 39.50us)       235
       nlp_g  |   1.21 s (  5.13ms)   1.21 s (  5.15ms)       235
  nlp_grad_f  |  14.10ms ( 65.26us)  14.19ms ( 65.68us)       216
  nlp_hess_l  |  28.72 s (134.22ms)  28.84 s (134.75ms)       214
   nlp_jac_g  |   7.92 s ( 36.68ms)   7.95 s ( 36.83ms)       216
       total  |  41.82 s ( 41.82 s)  41.99 s ( 41.99 s)         1
  Success: True
  Cost: 16.4269
  Iterations: 214
  Solve time: 60.70 s
  Max obstacle slack: 0.0000e+00
  Min obstacle clearance: inf m
  Accepted: True

Accepted attempt: baseline

Generating plots...
  Saved: /run/media/saveas/Secondary-Storage/Masters/CS234/CS234_Reinforcement_Learning/Final Project/CS234_Final_Project/results/trajectory_optimization/nlp/TRACK1_280m/N200/ipopt_single_stage_trajectory.png
  Saved: /run/media/saveas/Secondary-Storage/Masters/CS234/CS234_Reinforcement_Learning/Final Project/CS234_Final_Project/results/trajectory_optimization/nlp/TRACK1_280m/N200/ipopt_single_stage_states.png
  Saved: /run/media/saveas/Secondary-Storage/Masters/CS234/CS234_Reinforcement_Learning/Final Project/CS234_Final_Project/results/trajectory_optimization/nlp/TRACK1_280m/N200/ipopt_single_stage_controls.png

Generating animation...
  Saved: /run/media/saveas/Secondary-Storage/Masters/CS234/CS234_Reinforcement_Learning/Final Project/CS234_Final_Project/results/trajectory_optimization/nlp/TRACK1_280m/N200/ipopt_single_stage_animation.gif

======================================================================
SUMMARY
======================================================================
Selected attempt: baseline
Attempt                    N      Subs   Clear    Iters    Time [s]   Cost [s]   Max Sigma    Min Clear [m]  Accepted
-----------------------------------------------------------------------------------------------------------------------------
baseline                   200    7      0.000    214      60.70      16.4269    0.000e+00    inf            True

All outputs saved to: /run/media/saveas/Secondary-Storage/Masters/CS234/CS234_Reinforcement_Learning/Final Project/CS234_Final_Project/results/trajectory_optimization/nlp/TRACK1_280m/N200
